4
4
20
1 1.3 1.55 1.75 2.1
23 12 8 25 42 29 45 29 6 39 47 43 43 26 25 16 36 43 34 5 47 25 40 47 19 49 20 17 31 17 44 49 49 15 31 29 28 25 34 42 26 35 47 14 12 49 38 36 30 47 35 18 30 42 38 31 11 27 28 45 37 49 33 36 24 10 31 21 18 48 19 45 46 18 29 36 8 13 23 43 